<instance format="XCSP3" type="CSP">
  <variables>
    <array id="x" note="x[i][j] is the index of the piece at row i and column j" size="[9][7]"> 0..62 </array>
    <array id="t" note="t[i][j] is the value at the top of the piece at row i and column j" size="[10][7]"> 0..10 </array>
    <array id="l" note="l[i][j] is the value at the left of the piece at row i and column j" size="[9][8]"> 0..10 </array>
  </variables>
  <constraints>
    <allDifferent note="all pieces must be placed (only once)"> x[][] </allDifferent>
    <group note="all pieces must be valid (i.e., must correspond to those given initially, possibly after applying some rotation)">
      <extension>
        <list> %... </list>
        <supports> (0,0,0,1,2)(0,0,1,2,0)(0,1,2,0,0)(0,2,0,0,1)(1,0,0,2,1)(1,0,2,1,0)(1,1,0,0,2)(1,2,1,0,0)(2,0,0,2,3)(2,0,2,3,0)(2,2,3,0,0)(2,3,0,0,2)(3,0,0,3,1)(3,0,3,1,0)(3,1,0,0,3)(3,3,1,0,0)(4,0,1,4,1)(4,1,0,1,4)(4,1,4,1,0)(4,4,1,0,1)(5,0,1,4,2)(5,1,4,2,0)(5,2,0,1,4)(5,4,2,0,1)(6,0,1,4,3)(6,1,4,3,0)(6,3,0,1,4)(6,4,3,0,1)(7,0,1,5,2)(7,1,5,2,0)(7,2,0,1,5)(7,5,2,0,1)(8,0,1,6,3)(8,1,6,3,0)(8,3,0,1,6)(8,6,3,0,1)(9,0,1,7,1)(9,1,0,1,7)(9,1,7,1,0)(9,7,1,0,1)(10,0,1,8,1)(10,1,0,1,8)(10,1,8,1,0)(10,8,1,0,1)(11,0,1,8,3)(11,1,8,3,0)(11,3,0,1,8)(11,8,3,0,1)(12,0,1,9,3)(12,1,9,3,0)(12,3,0,1,9)(12,9,3,0,1)(13,0,2,4,1)(13,1,0,2,4)(13,2,4,1,0)(13,4,1,0,2)(14,0,2,5,1)(14,1,0,2,5)(14,2,5,1,0)(14,5,1,0,2)(15,0,2,5,2)(15,2,0,2,5)(15,2,5,2,0)(15,5,2,0,2)(16,0,2,6,2)(16,2,0,2,6)(16,2,6,2,0)(16,6,2,0,2)(17,0,2,7,2)(17,2,0,2,7)(17,2,7,2,0)(17,7,2,0,2)(18,0,2,9,1)(18,1,0,2,9)(18,2,9,1,0)(18,9,1,0,2)(19,0,2,10,1)(19,1,0,2,10)(19,2,10,1,0)(19,10,1,0,2)(20,0,3,4,3)(20,3,0,3,4)(20,3,4,3,0)(20,4,3,0,3)(21,0,3,5,2)(21,2,0,3,5)(21,3,5,2,0)(21,5,2,0,3)(22,0,3,5,3)(22,3,0,3,5)(22,3,5,3,0)(22,5,3,0,3)(23,0,3,6,2)(23,2,0,3,6)(23,3,6,2,0)(23,6,2,0,3)(24,0,3,6,3)(24,3,0,3,6)(24,3,6,3,0)(24,6,3,0,3)(25,0,3,7,2)(25,2,0,3,7)(25,3,7,2,0)(25,7,2,0,3)(26,0,3,8,1)(26,1,0,3,8)(26,3,8,1,0)(26,8,1,0,3)(27,0,3,10,3)(27,3,0,3,10)(27,3,10,3,0)(27,10,3,0,3)(28,4,4,7,10)(28,4,7,10,4)(28,7,10,4,4)(28,10,4,4,7)(29,4,5,4,10)(29,4,10,4,5)(29,5,4,10,4)(29,10,4,5,4)(30,4,5,10,10)(30,5,10,10,4)(30,10,4,5,10)(30,10,10,4,5)(31,4,6,4,10)(31,4,10,4,6)(31,6,4,10,4)(31,10,4,6,4)(32,4,6,7,5)(32,5,4,6,7)(32,6,7,5,4)(32,7,5,4,6)(33,4,6,8,9)(33,6,8,9,4)(33,8,9,4,6)(33,9,4,6,8)(34,4,6,10,10)(34,6,10,10,4)(34,10,4,6,10)(34,10,10,4,6)(35,4,7,8,5)(35,5,4,7,8)(35,7,8,5,4)(35,8,5,4,7)(36,4,8,6,7)(36,6,7,4,8)(36,7,4,8,6)(36,8,6,7,4)(37,4,8,6,9)(37,6,9,4,8)(37,8,6,9,4)(37,9,4,8,6)(38,4,8,8,10)(38,8,8,10,4)(38,8,10,4,8)(38,10,4,8,8)(39,4,9,6,10)(39,6,10,4,9)(39,9,6,10,4)(39,10,4,9,6)(40,4,9,9,9)(40,9,4,9,9)(40,9,9,4,9)(40,9,9,9,4)(41,4,9,10,7)(41,7,4,9,10)(41,9,10,7,4)(41,10,7,4,9)(42,4,9,10,8)(42,8,4,9,10)(42,9,10,8,4)(42,10,8,4,9)(43,4,10,10,9)(43,9,4,10,10)(43,10,9,4,10)(43,10,10,9,4)(44,5,5,5,9)(44,5,5,9,5)(44,5,9,5,5)(44,9,5,5,5)(45,5,5,10,7)(45,5,10,7,5)(45,7,5,5,10)(45,10,7,5,5)(46,5,6,5,7)(46,5,7,5,6)(46,6,5,7,5)(46,7,5,6,5)(47,5,6,7,7)(47,6,7,7,5)(47,7,5,6,7)(47,7,7,5,6)(48,5,6,8,7)(48,6,8,7,5)(48,7,5,6,8)(48,8,7,5,6)(49,5,7,7,8)(49,7,7,8,5)(49,7,8,5,7)(49,8,5,7,7)(50,5,7,8,9)(50,7,8,9,5)(50,8,9,5,7)(50,9,5,7,8)(51,5,7,9,8)(51,7,9,8,5)(51,8,5,7,9)(51,9,8,5,7)(52,5,8,9,6)(52,6,5,8,9)(52,8,9,6,5)(52,9,6,5,8)(53,5,9,7,8)(53,7,8,5,9)(53,8,5,9,7)(53,9,7,8,5)(54,5,10,6,6)(54,6,5,10,6)(54,6,6,5,10)(54,10,6,6,5)(55,6,6,9,8)(55,6,9,8,6)(55,8,6,6,9)(55,9,8,6,6)(56,6,7,7,10)(56,7,7,10,6)(56,7,10,6,7)(56,10,6,7,7)(57,6,8,6,9)(57,6,9,6,8)(57,8,6,9,6)(57,9,6,8,6)(58,6,8,7,10)(58,7,10,6,8)(58,8,7,10,6)(58,10,6,8,7)(59,6,10,7,7)(59,7,6,10,7)(59,7,7,6,10)(59,10,7,7,6)(60,7,8,10,8)(60,8,7,8,10)(60,8,10,8,7)(60,10,8,7,8)(61,8,8,8,9)(61,8,8,9,8)(61,8,9,8,8)(61,9,8,8,8)(62,9,9,9,10)(62,9,9,10,9)(62,9,10,9,9)(62,10,9,9,9) </supports>
      </extension>
      <args> x[0][0] t[0][0] l[0][1] t[1][0] l[0][0] </args>
      <args> x[0][1] t[0][1] l[0][2] t[1][1] l[0][1] </args>
      <args> x[0][2] t[0][2] l[0][3] t[1][2] l[0][2] </args>
      <args> x[0][3] t[0][3] l[0][4] t[1][3] l[0][3] </args>
      <args> x[0][4] t[0][4] l[0][5] t[1][4] l[0][4] </args>
      <args> x[0][5] t[0][5] l[0][6] t[1][5] l[0][5] </args>
      <args> x[0][6] t[0][6] l[0][7] t[1][6] l[0][6] </args>
      <args> x[1][0] t[1][0] l[1][1] t[2][0] l[1][0] </args>
      <args> x[1][1] t[1][1] l[1][2] t[2][1] l[1][1] </args>
      <args> x[1][2] t[1][2] l[1][3] t[2][2] l[1][2] </args>
      <args> x[1][3] t[1][3] l[1][4] t[2][3] l[1][3] </args>
      <args> x[1][4] t[1][4] l[1][5] t[2][4] l[1][4] </args>
      <args> x[1][5] t[1][5] l[1][6] t[2][5] l[1][5] </args>
      <args> x[1][6] t[1][6] l[1][7] t[2][6] l[1][6] </args>
      <args> x[2][0] t[2][0] l[2][1] t[3][0] l[2][0] </args>
      <args> x[2][1] t[2][1] l[2][2] t[3][1] l[2][1] </args>
      <args> x[2][2] t[2][2] l[2][3] t[3][2] l[2][2] </args>
      <args> x[2][3] t[2][3] l[2][4] t[3][3] l[2][3] </args>
      <args> x[2][4] t[2][4] l[2][5] t[3][4] l[2][4] </args>
      <args> x[2][5] t[2][5] l[2][6] t[3][5] l[2][5] </args>
      <args> x[2][6] t[2][6] l[2][7] t[3][6] l[2][6] </args>
      <args> x[3][0] t[3][0] l[3][1] t[4][0] l[3][0] </args>
      <args> x[3][1] t[3][1] l[3][2] t[4][1] l[3][1] </args>
      <args> x[3][2] t[3][2] l[3][3] t[4][2] l[3][2] </args>
      <args> x[3][3] t[3][3] l[3][4] t[4][3] l[3][3] </args>
      <args> x[3][4] t[3][4] l[3][5] t[4][4] l[3][4] </args>
      <args> x[3][5] t[3][5] l[3][6] t[4][5] l[3][5] </args>
      <args> x[3][6] t[3][6] l[3][7] t[4][6] l[3][6] </args>
      <args> x[4][0] t[4][0] l[4][1] t[5][0] l[4][0] </args>
      <args> x[4][1] t[4][1] l[4][2] t[5][1] l[4][1] </args>
      <args> x[4][2] t[4][2] l[4][3] t[5][2] l[4][2] </args>
      <args> x[4][3] t[4][3] l[4][4] t[5][3] l[4][3] </args>
      <args> x[4][4] t[4][4] l[4][5] t[5][4] l[4][4] </args>
      <args> x[4][5] t[4][5] l[4][6] t[5][5] l[4][5] </args>
      <args> x[4][6] t[4][6] l[4][7] t[5][6] l[4][6] </args>
      <args> x[5][0] t[5][0] l[5][1] t[6][0] l[5][0] </args>
      <args> x[5][1] t[5][1] l[5][2] t[6][1] l[5][1] </args>
      <args> x[5][2] t[5][2] l[5][3] t[6][2] l[5][2] </args>
      <args> x[5][3] t[5][3] l[5][4] t[6][3] l[5][3] </args>
      <args> x[5][4] t[5][4] l[5][5] t[6][4] l[5][4] </args>
      <args> x[5][5] t[5][5] l[5][6] t[6][5] l[5][5] </args>
      <args> x[5][6] t[5][6] l[5][7] t[6][6] l[5][6] </args>
      <args> x[6][0] t[6][0] l[6][1] t[7][0] l[6][0] </args>
      <args> x[6][1] t[6][1] l[6][2] t[7][1] l[6][1] </args>
      <args> x[6][2] t[6][2] l[6][3] t[7][2] l[6][2] </args>
      <args> x[6][3] t[6][3] l[6][4] t[7][3] l[6][3] </args>
      <args> x[6][4] t[6][4] l[6][5] t[7][4] l[6][4] </args>
      <args> x[6][5] t[6][5] l[6][6] t[7][5] l[6][5] </args>
      <args> x[6][6] t[6][6] l[6][7] t[7][6] l[6][6] </args>
      <args> x[7][0] t[7][0] l[7][1] t[8][0] l[7][0] </args>
      <args> x[7][1] t[7][1] l[7][2] t[8][1] l[7][1] </args>
      <args> x[7][2] t[7][2] l[7][3] t[8][2] l[7][2] </args>
      <args> x[7][3] t[7][3] l[7][4] t[8][3] l[7][3] </args>
      <args> x[7][4] t[7][4] l[7][5] t[8][4] l[7][4] </args>
      <args> x[7][5] t[7][5] l[7][6] t[8][5] l[7][5] </args>
      <args> x[7][6] t[7][6] l[7][7] t[8][6] l[7][6] </args>
      <args> x[8][0] t[8][0] l[8][1] t[9][0] l[8][0] </args>
      <args> x[8][1] t[8][1] l[8][2] t[9][1] l[8][1] </args>
      <args> x[8][2] t[8][2] l[8][3] t[9][2] l[8][2] </args>
      <args> x[8][3] t[8][3] l[8][4] t[9][3] l[8][3] </args>
      <args> x[8][4] t[8][4] l[8][5] t[9][4] l[8][4] </args>
      <args> x[8][5] t[8][5] l[8][6] t[9][5] l[8][5] </args>
      <args> x[8][6] t[8][6] l[8][7] t[9][6] l[8][6] </args>
    </group>
    <group note="putting special value 0 on borders">
      <intension> eq(%0,0) </intension>
      <args> t[0][0] </args>
      <args> t[0][1] </args>
      <args> t[0][2] </args>
      <args> t[0][3] </args>
      <args> t[0][4] </args>
      <args> t[0][5] </args>
      <args> t[0][6] </args>
      <args> l[0][7] </args>
      <args> l[1][7] </args>
      <args> l[2][7] </args>
      <args> l[3][7] </args>
      <args> l[4][7] </args>
      <args> l[5][7] </args>
      <args> l[6][7] </args>
      <args> l[7][7] </args>
      <args> l[8][7] </args>
      <args> t[9][0] </args>
      <args> t[9][1] </args>
      <args> t[9][2] </args>
      <args> t[9][3] </args>
      <args> t[9][4] </args>
      <args> t[9][5] </args>
      <args> t[9][6] </args>
      <args> l[0][0] </args>
      <args> l[1][0] </args>
      <args> l[2][0] </args>
      <args> l[3][0] </args>
      <args> l[4][0] </args>
      <args> l[5][0] </args>
      <args> l[6][0] </args>
      <args> l[7][0] </args>
      <args> l[8][0] </args>
    </group>
  </constraints>
</instance>
